20190521 100 0 0 0
20180416 150 5000 0 0
20170420 40 0 0 0
20160622 90 0 0 0
20150608 90 0 0 0
20140620 90 0 0 0
20130604 90 0 0 0
20120613 50 10000 0 0
20110317 50 0 0 0
20100702 50 0 0 0
20090612 50 0 0 0
20080519 100 5000 0 0
20070309 100 0 0 0
20060907 0 5000 0 0
20060614 120 0 0 0
20051103 0 3000 0 0
20050411 200 8000 0 0
20040408 80 0 0 0
